# 用Green-Kubo方法计算固态氩热导率的LAMMPS脚本
# 作者：樊哲勇（这是我写的第一个LAMMPS脚本）

# 采用metal单位系统（记住：能量eV；长度：A；时间：ps）
units       metal

# 定义几个参数 
variable    T  equal 60      # 温度为 60 K
variable    A  equal 5.4     # 晶格常数大概为 5.4 A
variable    DT equal 0.01    # 积分步长为 10 fs

# 初始化坐标、势函数、速度等数据
lattice      fcc ${A}               # 固态氩具有面心立方结构 
region       BOX block 0 4 0 4 0 4  # 一共有 4*4*4*4=256 原子 
create_box   1 BOX                  # 先造一个盒子 
create_atoms 1 box                  # 再填满原子 
mass         1 40                   # 质量就是原子量
pair_style   lj/cut 10.0            # LJ 势的截断半径取10 A
pair_coeff   * * 1.032e-2 3.405     # epsilon 和 sigma
velocity     all create ${T} 12345  # 根据温度初始化速度

# 在NVT系综下平衡体系
fix          NVT all nvt temp ${T} ${T} 1 # Nose-Hoover 热浴
timestep     ${DT}                        # 设置积分步长
thermo_style custom step temp press       # 观察温度和压强的变化 
thermo       1000                         # 1000 步输出一次

# 根据以上设置跑若干步，目的是使系统达到热力学平衡态 
run          20000                        # 跑 20000 步

# 在产出阶段将用NVE系综
unfix          NVT            # 撤掉之前的 NVT 系综
fix            NVE all nve    # 换上 NVE 系综

# 在产出阶段计算热流
compute      KE all ke/atom                # 计算单原子动能
compute      PE all pe/atom                # 计算单原子势能
compute      V all stress/atom NULL virial # 计算单原子位力
compute      J all heat/flux KE PE V       # 计算单原子热流

# 在产出阶段计算热流自关联函数 <J(0)J(t)>
variable    Ns equal 10             # 取样间隔
variable    Nc equal 200            # 关联数据量（最大关联时间为 Ns*Nc*DT）
variable    Np equal ${Ns}*${Nc}*10 # 产出步数（这是一个好的选择）
fix         HAC all ave/correlate ${Ns} ${Nc} ${Np} c_J[1] c_J[2] c_J[3] &
            type auto file hac.txt

variable    M equal 10         # 热流自关联函数的个数 
variable    N equal ${M}*${Np} # 产出步数 
            
# 跑产出阶段 
run         ${N}
